CLW02
Position Depot: Center
Horizon for Depot: Large
Position of customers: Cluster
Distribution of the demand: Small
Width of time windows: Wide
Distribution of the service: Small

VEHICLE 
NUMBER 	 CAPACITY 
 6 	 	 59 
 
CUSTOMER
CUST NO. 	 XCOORD.  	 YCOORD. 	 DEMAND 	 READY TIME 	 DUE DATE 	 SERVICE TIME 
 0 	 	 500 	 	 500 	 	 0 	 	 0 	 	 3695 	 	 0 
  1 	 	 539 	 	 755 	 	 8 	 	 2558 	 	 2779 	 	 58 
  2 	 	 47 	 	 890 	 	 6 	 	 3344 	 	 3659 	 	 87 
  3 	 	 910 	 	 395 	 	 10 	 	 2353 	 	 2717 	 	 72 
  4 	 	 996 	 	 460 	 	 9 	 	 1394 	 	 1613 	 	 52 
  5 	 	 125 	 	 85 	 	 10 	 	 3202 	 	 3437 	 	 59 
  6 	 	 55 	 	 982 	 	 5 	 	 3107 	 	 3357 	 	 50 
  7 	 	 983 	 	 835 	 	 8 	 	 2976 	 	 3338 	 	 87 
  8 	 	 683 	 	 249 	 	 9 	 	 1991 	 	 2311 	 	 62 
  9 	 	 76 	 	 866 	 	 7 	 	 790 	 	 1097 	 	 87 
  10 	 	 531 	 	 720 	 	 7 	 	 1721 	 	 2161 	 	 66 
  11 	 	 98 	 	 111 	 	 7 	 	 125 	 	 615 	 	 89 
  12 	 	 607 	 	 709 	 	 8 	 	 2989 	 	 3428 	 	 73 
  13 	 	 594 	 	 264 	 	 6 	 	 3343 	 	 3695 	 	 92 
  14 	 	 667 	 	 297 	 	 6 	 	 699 	 	 1138 	 	 92 
  15 	 	 528 	 	 749 	 	 8 	 	 1862 	 	 2153 	 	 81 
  16 	 	 780 	 	 89 	 	 7 	 	 2373 	 	 2615 	 	 52 
  17 	 	 529 	 	 772 	 	 6 	 	 1758 	 	 2053 	 	 86 
  18 	 	 897 	 	 573 	 	 6 	 	 3143 	 	 3522 	 	 75 
  19 	 	 604 	 	 930 	 	 5 	 	 1423 	 	 1643 	 	 61 
  20 	 	 553 	 	 708 	 	 9 	 	 373 	 	 645 	 	 53 
  21 	 	 910 	 	 420 	 	 5 	 	 165 	 	 459 	 	 70 
  22 	 	 515 	 	 698 	 	 5 	 	 171 	 	 517 	 	 63 
  23 	 	 793 	 	 316 	 	 7 	 	 973 	 	 1253 	 	 75 
  24 	 	 61 	 	 997 	 	 8 	 	 2191 	 	 2604 	 	 77 
  25 	 	 851 	 	 319 	 	 8 	 	 3154 	 	 3394 	 	 76 
  26 	 	 77 	 	 83 	 	 9 	 	 2825 	 	 3048 	 	 97 
  27 	 	 872 	 	 426 	 	 6 	 	 3002 	 	 3456 	 	 61 
  28 	 	 112 	 	 71 	 	 9 	 	 2513 	 	 2893 	 	 93 
  29 	 	 616 	 	 353 	 	 7 	 	 3197 	 	 3693 	 	 59 
  30 	 	 980 	 	 809 	 	 10 	 	 194 	 	 627 	 	 90 
  31 	 	 17 	 	 874 	 	 8 	 	 1012 	 	 1439 	 	 63 
  32 	 	 987 	 	 499 	 	 5 	 	 1116 	 	 1389 	 	 61 
  33 	 	 146 	 	 96 	 	 5 	 	 1082 	 	 1356 	 	 53 
  34 	 	 46 	 	 967 	 	 10 	 	 1362 	 	 1753 	 	 81 
  35 	 	 586 	 	 794 	 	 5 	 	 2259 	 	 2691 	 	 65 
  36 	 	 24 	 	 928 	 	 10 	 	 209 	 	 704 	 	 84 
  37 	 	 84 	 	 973 	 	 6 	 	 529 	 	 740 	 	 66 
  38 	 	 92 	 	 876 	 	 10 	 	 362 	 	 610 	 	 66 
  39 	 	 47 	 	 967 	 	 9 	 	 793 	 	 1264 	 	 91 
  40 	 	 53 	 	 925 	 	 6 	 	 2911 	 	 3135 	 	 72 
  41 	 	 91 	 	 35 	 	 7 	 	 1550 	 	 1830 	 	 62 
  42 	 	 675 	 	 248 	 	 8 	 	 1068 	 	 1548 	 	 91 
  43 	 	 964 	 	 383 	 	 6 	 	 1026 	 	 1473 	 	 52 
  44 	 	 942 	 	 393 	 	 8 	 	 1064 	 	 1439 	 	 89 
  45 	 	 927 	 	 437 	 	 5 	 	 1761 	 	 2022 	 	 70 
  46 	 	 859 	 	 333 	 	 5 	 	 3455 	 	 3695 	 	 70 
  47 	 	 549 	 	 787 	 	 5 	 	 185 	 	 475 	 	 97 
  48 	 	 977 	 	 463 	 	 6 	 	 727 	 	 1036 	 	 60 
  49 	 	 954 	 	 747 	 	 9 	 	 3000 	 	 3212 	 	 64 
  50 	 	 883 	 	 419 	 	 10 	 	 1305 	 	 1531 	 	 54 
 